
//Exemple1

n=10;
Edges ={<1,2>,<1,5>,<1,6>,<1,7>,<2,3>,<3,4>,<4,8>,
<4,9>,<4,10>};



//Exemple2

//n=11;
//Edges ={<1,2>,<1,3>,<1,4>,<2,3>,<3,5>,<3,6>,
//<4,5>,<4,7>,<5,6>,<5,8>,<7,8>,<7,9>,<8,10>,<9,10>,<10,11>};




//Exemple3
//
//n=17;
//Edges ={<1,2>,<1,3>,<1,4>,<1,5>,<2,3>,<2,6>,<3,4>,<3,7>,
//<4,5>,<4,8>,<5,9>,<6,7>,<6,10>,<7,8>,<7,11>,<8,9>,<8,12>,<9,13>,
//<10,11>,<10,14>,<11,12>,<11,15>,<12,13>,<12,16>,<13,17>,<14,15>,<15,16>,<16,17>};